webassembly/ejemplos_dzn/folder6_json_60.dzn
TERM = { '.', 'in_1', 'local_0', 'in_2', 's(1)', 's(0)', 'in_0'};
null = '.';
s = 6;
n = 9;
ndeps = 3;
max_registers_sz = 3;
NR = 0;
registers = [| |];
dependencies = [|'i32.store8_1', 'i32.load16_u_2', |'i32.load16_u_2', 'i32.store_4', |'i32.store_4', 'i32.load16_s_5'|];
GET_ENUM = { GET1, GET2, GET3};
SET_ENUM = { SET1, SET2, SET3};
TEE_ENUM = { TEE1, TEE2, TEE3};
N = 5;
OP = { 'i32.store8_1', 'i32.load16_u_2', 'i32.store_4', 'i32.load16_s_5', 'local.get_0' };
in_ops = [2, 1, 2, 1, 0 ];
out_ops = [0, 1, 0, 1, 1 ];
in1 = ['local_0', 'in_1', 'local_0', 'in_2', '.' ];
in2 = ['in_0', '.', 's(0)', '.', '.' ];
in3 = ['.', '.', '.', '.', '.' ];
out1 = ['.', 's(0)', '.', 's(1)', 'local_0' ];
out2 = ['.', '.', '.', '.', '.' ];
out3 = ['.', '.', '.', '.', '.' ];
comm = [false, false, false, false, false ];
gas = [1, 1, 1, 1, 1 ];
sz = [1, 1, 1, 1, 1 ];
stor = [true, false, true, false, false ];
lb = [ 1, 1, 1, 1, 1 ];
ub = [ 6, 6, 6, 6, 6 ];
startstack = [ 'in_0', 'in_1', 'in_2', null, null, null, null, null, null ];
endstack = [ 's(1)', null, null, null, null, null, null, null, null ];
